c *********************************
c * Circuit generated by BenCGen
c *
c * Parity_271
c *
c * Ports with 1 gate(s): 1
c * Ports with 2 gate(s): 271
c * Total gates: 272
c *********************************
p cnf 543 1085
1 274 0
-1 -274 0
1 -273 0
274 -273 0
-1 -274 273 0
1 2 -275 0
-1 2 275 0
1 -2 275 0
-1 -2 -275 0
3 4 -276 0
-3 4 276 0
3 -4 276 0
-3 -4 -276 0
5 6 -277 0
-5 6 277 0
5 -6 277 0
-5 -6 -277 0
7 8 -278 0
-7 8 278 0
7 -8 278 0
-7 -8 -278 0
9 10 -279 0
-9 10 279 0
9 -10 279 0
-9 -10 -279 0
11 12 -280 0
-11 12 280 0
11 -12 280 0
-11 -12 -280 0
13 14 -281 0
-13 14 281 0
13 -14 281 0
-13 -14 -281 0
15 16 -282 0
-15 16 282 0
15 -16 282 0
-15 -16 -282 0
17 18 -283 0
-17 18 283 0
17 -18 283 0
-17 -18 -283 0
19 20 -284 0
-19 20 284 0
19 -20 284 0
-19 -20 -284 0
21 22 -285 0
-21 22 285 0
21 -22 285 0
-21 -22 -285 0
23 24 -286 0
-23 24 286 0
23 -24 286 0
-23 -24 -286 0
25 26 -287 0
-25 26 287 0
25 -26 287 0
-25 -26 -287 0
27 28 -288 0
-27 28 288 0
27 -28 288 0
-27 -28 -288 0
29 30 -289 0
-29 30 289 0
29 -30 289 0
-29 -30 -289 0
31 32 -290 0
-31 32 290 0
31 -32 290 0
-31 -32 -290 0
33 34 -291 0
-33 34 291 0
33 -34 291 0
-33 -34 -291 0
35 36 -292 0
-35 36 292 0
35 -36 292 0
-35 -36 -292 0
37 38 -293 0
-37 38 293 0
37 -38 293 0
-37 -38 -293 0
39 40 -294 0
-39 40 294 0
39 -40 294 0
-39 -40 -294 0
41 42 -295 0
-41 42 295 0
41 -42 295 0
-41 -42 -295 0
43 44 -296 0
-43 44 296 0
43 -44 296 0
-43 -44 -296 0
45 46 -297 0
-45 46 297 0
45 -46 297 0
-45 -46 -297 0
47 48 -298 0
-47 48 298 0
47 -48 298 0
-47 -48 -298 0
49 50 -299 0
-49 50 299 0
49 -50 299 0
-49 -50 -299 0
51 52 -300 0
-51 52 300 0
51 -52 300 0
-51 -52 -300 0
53 54 -301 0
-53 54 301 0
53 -54 301 0
-53 -54 -301 0
55 56 -302 0
-55 56 302 0
55 -56 302 0
-55 -56 -302 0
57 58 -303 0
-57 58 303 0
57 -58 303 0
-57 -58 -303 0
59 60 -304 0
-59 60 304 0
59 -60 304 0
-59 -60 -304 0
61 62 -305 0
-61 62 305 0
61 -62 305 0
-61 -62 -305 0
63 64 -306 0
-63 64 306 0
63 -64 306 0
-63 -64 -306 0
65 66 -307 0
-65 66 307 0
65 -66 307 0
-65 -66 -307 0
67 68 -308 0
-67 68 308 0
67 -68 308 0
-67 -68 -308 0
69 70 -309 0
-69 70 309 0
69 -70 309 0
-69 -70 -309 0
71 72 -310 0
-71 72 310 0
71 -72 310 0
-71 -72 -310 0
73 74 -311 0
-73 74 311 0
73 -74 311 0
-73 -74 -311 0
75 76 -312 0
-75 76 312 0
75 -76 312 0
-75 -76 -312 0
77 78 -313 0
-77 78 313 0
77 -78 313 0
-77 -78 -313 0
79 80 -314 0
-79 80 314 0
79 -80 314 0
-79 -80 -314 0
81 82 -315 0
-81 82 315 0
81 -82 315 0
-81 -82 -315 0
83 84 -316 0
-83 84 316 0
83 -84 316 0
-83 -84 -316 0
85 86 -317 0
-85 86 317 0
85 -86 317 0
-85 -86 -317 0
87 88 -318 0
-87 88 318 0
87 -88 318 0
-87 -88 -318 0
89 90 -319 0
-89 90 319 0
89 -90 319 0
-89 -90 -319 0
91 92 -320 0
-91 92 320 0
91 -92 320 0
-91 -92 -320 0
93 94 -321 0
-93 94 321 0
93 -94 321 0
-93 -94 -321 0
95 96 -322 0
-95 96 322 0
95 -96 322 0
-95 -96 -322 0
97 98 -323 0
-97 98 323 0
97 -98 323 0
-97 -98 -323 0
99 100 -324 0
-99 100 324 0
99 -100 324 0
-99 -100 -324 0
101 102 -325 0
-101 102 325 0
101 -102 325 0
-101 -102 -325 0
103 104 -326 0
-103 104 326 0
103 -104 326 0
-103 -104 -326 0
105 106 -327 0
-105 106 327 0
105 -106 327 0
-105 -106 -327 0
107 108 -328 0
-107 108 328 0
107 -108 328 0
-107 -108 -328 0
109 110 -329 0
-109 110 329 0
109 -110 329 0
-109 -110 -329 0
111 112 -330 0
-111 112 330 0
111 -112 330 0
-111 -112 -330 0
113 114 -331 0
-113 114 331 0
113 -114 331 0
-113 -114 -331 0
115 116 -332 0
-115 116 332 0
115 -116 332 0
-115 -116 -332 0
117 118 -333 0
-117 118 333 0
117 -118 333 0
-117 -118 -333 0
119 120 -334 0
-119 120 334 0
119 -120 334 0
-119 -120 -334 0
121 122 -335 0
-121 122 335 0
121 -122 335 0
-121 -122 -335 0
123 124 -336 0
-123 124 336 0
123 -124 336 0
-123 -124 -336 0
125 126 -337 0
-125 126 337 0
125 -126 337 0
-125 -126 -337 0
127 128 -338 0
-127 128 338 0
127 -128 338 0
-127 -128 -338 0
129 130 -339 0
-129 130 339 0
129 -130 339 0
-129 -130 -339 0
131 132 -340 0
-131 132 340 0
131 -132 340 0
-131 -132 -340 0
133 134 -341 0
-133 134 341 0
133 -134 341 0
-133 -134 -341 0
135 136 -342 0
-135 136 342 0
135 -136 342 0
-135 -136 -342 0
137 138 -343 0
-137 138 343 0
137 -138 343 0
-137 -138 -343 0
139 140 -344 0
-139 140 344 0
139 -140 344 0
-139 -140 -344 0
141 142 -345 0
-141 142 345 0
141 -142 345 0
-141 -142 -345 0
143 144 -346 0
-143 144 346 0
143 -144 346 0
-143 -144 -346 0
145 146 -347 0
-145 146 347 0
145 -146 347 0
-145 -146 -347 0
147 148 -348 0
-147 148 348 0
147 -148 348 0
-147 -148 -348 0
149 150 -349 0
-149 150 349 0
149 -150 349 0
-149 -150 -349 0
151 152 -350 0
-151 152 350 0
151 -152 350 0
-151 -152 -350 0
153 154 -351 0
-153 154 351 0
153 -154 351 0
-153 -154 -351 0
155 156 -352 0
-155 156 352 0
155 -156 352 0
-155 -156 -352 0
157 158 -353 0
-157 158 353 0
157 -158 353 0
-157 -158 -353 0
159 160 -354 0
-159 160 354 0
159 -160 354 0
-159 -160 -354 0
161 162 -355 0
-161 162 355 0
161 -162 355 0
-161 -162 -355 0
163 164 -356 0
-163 164 356 0
163 -164 356 0
-163 -164 -356 0
165 166 -357 0
-165 166 357 0
165 -166 357 0
-165 -166 -357 0
167 168 -358 0
-167 168 358 0
167 -168 358 0
-167 -168 -358 0
169 170 -359 0
-169 170 359 0
169 -170 359 0
-169 -170 -359 0
171 172 -360 0
-171 172 360 0
171 -172 360 0
-171 -172 -360 0
173 174 -361 0
-173 174 361 0
173 -174 361 0
-173 -174 -361 0
175 176 -362 0
-175 176 362 0
175 -176 362 0
-175 -176 -362 0
177 178 -363 0
-177 178 363 0
177 -178 363 0
-177 -178 -363 0
179 180 -364 0
-179 180 364 0
179 -180 364 0
-179 -180 -364 0
181 182 -365 0
-181 182 365 0
181 -182 365 0
-181 -182 -365 0
183 184 -366 0
-183 184 366 0
183 -184 366 0
-183 -184 -366 0
185 186 -367 0
-185 186 367 0
185 -186 367 0
-185 -186 -367 0
187 188 -368 0
-187 188 368 0
187 -188 368 0
-187 -188 -368 0
189 190 -369 0
-189 190 369 0
189 -190 369 0
-189 -190 -369 0
191 192 -370 0
-191 192 370 0
191 -192 370 0
-191 -192 -370 0
193 194 -371 0
-193 194 371 0
193 -194 371 0
-193 -194 -371 0
195 196 -372 0
-195 196 372 0
195 -196 372 0
-195 -196 -372 0
197 198 -373 0
-197 198 373 0
197 -198 373 0
-197 -198 -373 0
199 200 -374 0
-199 200 374 0
199 -200 374 0
-199 -200 -374 0
201 202 -375 0
-201 202 375 0
201 -202 375 0
-201 -202 -375 0
203 204 -376 0
-203 204 376 0
203 -204 376 0
-203 -204 -376 0
205 206 -377 0
-205 206 377 0
205 -206 377 0
-205 -206 -377 0
207 208 -378 0
-207 208 378 0
207 -208 378 0
-207 -208 -378 0
209 210 -379 0
-209 210 379 0
209 -210 379 0
-209 -210 -379 0
211 212 -380 0
-211 212 380 0
211 -212 380 0
-211 -212 -380 0
213 214 -381 0
-213 214 381 0
213 -214 381 0
-213 -214 -381 0
215 216 -382 0
-215 216 382 0
215 -216 382 0
-215 -216 -382 0
217 218 -383 0
-217 218 383 0
217 -218 383 0
-217 -218 -383 0
219 220 -384 0
-219 220 384 0
219 -220 384 0
-219 -220 -384 0
221 222 -385 0
-221 222 385 0
221 -222 385 0
-221 -222 -385 0
223 224 -386 0
-223 224 386 0
223 -224 386 0
-223 -224 -386 0
225 226 -387 0
-225 226 387 0
225 -226 387 0
-225 -226 -387 0
227 228 -388 0
-227 228 388 0
227 -228 388 0
-227 -228 -388 0
229 230 -389 0
-229 230 389 0
229 -230 389 0
-229 -230 -389 0
231 232 -390 0
-231 232 390 0
231 -232 390 0
-231 -232 -390 0
233 234 -391 0
-233 234 391 0
233 -234 391 0
-233 -234 -391 0
235 236 -392 0
-235 236 392 0
235 -236 392 0
-235 -236 -392 0
237 238 -393 0
-237 238 393 0
237 -238 393 0
-237 -238 -393 0
239 240 -394 0
-239 240 394 0
239 -240 394 0
-239 -240 -394 0
241 242 -395 0
-241 242 395 0
241 -242 395 0
-241 -242 -395 0
243 244 -396 0
-243 244 396 0
243 -244 396 0
-243 -244 -396 0
245 246 -397 0
-245 246 397 0
245 -246 397 0
-245 -246 -397 0
247 248 -398 0
-247 248 398 0
247 -248 398 0
-247 -248 -398 0
249 250 -399 0
-249 250 399 0
249 -250 399 0
-249 -250 -399 0
251 252 -400 0
-251 252 400 0
251 -252 400 0
-251 -252 -400 0
253 254 -401 0
-253 254 401 0
253 -254 401 0
-253 -254 -401 0
255 256 -402 0
-255 256 402 0
255 -256 402 0
-255 -256 -402 0
257 258 -403 0
-257 258 403 0
257 -258 403 0
-257 -258 -403 0
259 260 -404 0
-259 260 404 0
259 -260 404 0
-259 -260 -404 0
261 262 -405 0
-261 262 405 0
261 -262 405 0
-261 -262 -405 0
263 264 -406 0
-263 264 406 0
263 -264 406 0
-263 -264 -406 0
265 266 -407 0
-265 266 407 0
265 -266 407 0
-265 -266 -407 0
267 268 -408 0
-267 268 408 0
267 -268 408 0
-267 -268 -408 0
269 270 -409 0
-269 270 409 0
269 -270 409 0
-269 -270 -409 0
275 276 -410 0
-275 276 410 0
275 -276 410 0
-275 -276 -410 0
277 278 -411 0
-277 278 411 0
277 -278 411 0
-277 -278 -411 0
279 280 -412 0
-279 280 412 0
279 -280 412 0
-279 -280 -412 0
281 282 -413 0
-281 282 413 0
281 -282 413 0
-281 -282 -413 0
283 284 -414 0
-283 284 414 0
283 -284 414 0
-283 -284 -414 0
285 286 -415 0
-285 286 415 0
285 -286 415 0
-285 -286 -415 0
287 288 -416 0
-287 288 416 0
287 -288 416 0
-287 -288 -416 0
289 290 -417 0
-289 290 417 0
289 -290 417 0
-289 -290 -417 0
291 292 -418 0
-291 292 418 0
291 -292 418 0
-291 -292 -418 0
293 294 -419 0
-293 294 419 0
293 -294 419 0
-293 -294 -419 0
295 296 -420 0
-295 296 420 0
295 -296 420 0
-295 -296 -420 0
297 298 -421 0
-297 298 421 0
297 -298 421 0
-297 -298 -421 0
299 300 -422 0
-299 300 422 0
299 -300 422 0
-299 -300 -422 0
301 302 -423 0
-301 302 423 0
301 -302 423 0
-301 -302 -423 0
303 304 -424 0
-303 304 424 0
303 -304 424 0
-303 -304 -424 0
305 306 -425 0
-305 306 425 0
305 -306 425 0
-305 -306 -425 0
307 308 -426 0
-307 308 426 0
307 -308 426 0
-307 -308 -426 0
309 310 -427 0
-309 310 427 0
309 -310 427 0
-309 -310 -427 0
311 312 -428 0
-311 312 428 0
311 -312 428 0
-311 -312 -428 0
313 314 -429 0
-313 314 429 0
313 -314 429 0
-313 -314 -429 0
315 316 -430 0
-315 316 430 0
315 -316 430 0
-315 -316 -430 0
317 318 -431 0
-317 318 431 0
317 -318 431 0
-317 -318 -431 0
319 320 -432 0
-319 320 432 0
319 -320 432 0
-319 -320 -432 0
321 322 -433 0
-321 322 433 0
321 -322 433 0
-321 -322 -433 0
323 324 -434 0
-323 324 434 0
323 -324 434 0
-323 -324 -434 0
325 326 -435 0
-325 326 435 0
325 -326 435 0
-325 -326 -435 0
327 328 -436 0
-327 328 436 0
327 -328 436 0
-327 -328 -436 0
329 330 -437 0
-329 330 437 0
329 -330 437 0
-329 -330 -437 0
331 332 -438 0
-331 332 438 0
331 -332 438 0
-331 -332 -438 0
333 334 -439 0
-333 334 439 0
333 -334 439 0
-333 -334 -439 0
335 336 -440 0
-335 336 440 0
335 -336 440 0
-335 -336 -440 0
337 338 -441 0
-337 338 441 0
337 -338 441 0
-337 -338 -441 0
339 340 -442 0
-339 340 442 0
339 -340 442 0
-339 -340 -442 0
341 342 -443 0
-341 342 443 0
341 -342 443 0
-341 -342 -443 0
343 344 -444 0
-343 344 444 0
343 -344 444 0
-343 -344 -444 0
345 346 -445 0
-345 346 445 0
345 -346 445 0
-345 -346 -445 0
347 348 -446 0
-347 348 446 0
347 -348 446 0
-347 -348 -446 0
349 350 -447 0
-349 350 447 0
349 -350 447 0
-349 -350 -447 0
351 352 -448 0
-351 352 448 0
351 -352 448 0
-351 -352 -448 0
353 354 -449 0
-353 354 449 0
353 -354 449 0
-353 -354 -449 0
355 356 -450 0
-355 356 450 0
355 -356 450 0
-355 -356 -450 0
357 358 -451 0
-357 358 451 0
357 -358 451 0
-357 -358 -451 0
359 360 -452 0
-359 360 452 0
359 -360 452 0
-359 -360 -452 0
361 362 -453 0
-361 362 453 0
361 -362 453 0
-361 -362 -453 0
363 364 -454 0
-363 364 454 0
363 -364 454 0
-363 -364 -454 0
365 366 -455 0
-365 366 455 0
365 -366 455 0
-365 -366 -455 0
367 368 -456 0
-367 368 456 0
367 -368 456 0
-367 -368 -456 0
369 370 -457 0
-369 370 457 0
369 -370 457 0
-369 -370 -457 0
371 372 -458 0
-371 372 458 0
371 -372 458 0
-371 -372 -458 0
373 374 -459 0
-373 374 459 0
373 -374 459 0
-373 -374 -459 0
375 376 -460 0
-375 376 460 0
375 -376 460 0
-375 -376 -460 0
377 378 -461 0
-377 378 461 0
377 -378 461 0
-377 -378 -461 0
379 380 -462 0
-379 380 462 0
379 -380 462 0
-379 -380 -462 0
381 382 -463 0
-381 382 463 0
381 -382 463 0
-381 -382 -463 0
383 384 -464 0
-383 384 464 0
383 -384 464 0
-383 -384 -464 0
385 386 -465 0
-385 386 465 0
385 -386 465 0
-385 -386 -465 0
387 388 -466 0
-387 388 466 0
387 -388 466 0
-387 -388 -466 0
389 390 -467 0
-389 390 467 0
389 -390 467 0
-389 -390 -467 0
391 392 -468 0
-391 392 468 0
391 -392 468 0
-391 -392 -468 0
393 394 -469 0
-393 394 469 0
393 -394 469 0
-393 -394 -469 0
395 396 -470 0
-395 396 470 0
395 -396 470 0
-395 -396 -470 0
397 398 -471 0
-397 398 471 0
397 -398 471 0
-397 -398 -471 0
399 400 -472 0
-399 400 472 0
399 -400 472 0
-399 -400 -472 0
401 402 -473 0
-401 402 473 0
401 -402 473 0
-401 -402 -473 0
403 404 -474 0
-403 404 474 0
403 -404 474 0
-403 -404 -474 0
405 406 -475 0
-405 406 475 0
405 -406 475 0
-405 -406 -475 0
407 408 -476 0
-407 408 476 0
407 -408 476 0
-407 -408 -476 0
409 271 -477 0
-409 271 477 0
409 -271 477 0
-409 -271 -477 0
410 411 -478 0
-410 411 478 0
410 -411 478 0
-410 -411 -478 0
412 413 -479 0
-412 413 479 0
412 -413 479 0
-412 -413 -479 0
414 415 -480 0
-414 415 480 0
414 -415 480 0
-414 -415 -480 0
416 417 -481 0
-416 417 481 0
416 -417 481 0
-416 -417 -481 0
418 419 -482 0
-418 419 482 0
418 -419 482 0
-418 -419 -482 0
420 421 -483 0
-420 421 483 0
420 -421 483 0
-420 -421 -483 0
422 423 -484 0
-422 423 484 0
422 -423 484 0
-422 -423 -484 0
424 425 -485 0
-424 425 485 0
424 -425 485 0
-424 -425 -485 0
426 427 -486 0
-426 427 486 0
426 -427 486 0
-426 -427 -486 0
428 429 -487 0
-428 429 487 0
428 -429 487 0
-428 -429 -487 0
430 431 -488 0
-430 431 488 0
430 -431 488 0
-430 -431 -488 0
432 433 -489 0
-432 433 489 0
432 -433 489 0
-432 -433 -489 0
434 435 -490 0
-434 435 490 0
434 -435 490 0
-434 -435 -490 0
436 437 -491 0
-436 437 491 0
436 -437 491 0
-436 -437 -491 0
438 439 -492 0
-438 439 492 0
438 -439 492 0
-438 -439 -492 0
440 441 -493 0
-440 441 493 0
440 -441 493 0
-440 -441 -493 0
442 443 -494 0
-442 443 494 0
442 -443 494 0
-442 -443 -494 0
444 445 -495 0
-444 445 495 0
444 -445 495 0
-444 -445 -495 0
446 447 -496 0
-446 447 496 0
446 -447 496 0
-446 -447 -496 0
448 449 -497 0
-448 449 497 0
448 -449 497 0
-448 -449 -497 0
450 451 -498 0
-450 451 498 0
450 -451 498 0
-450 -451 -498 0
452 453 -499 0
-452 453 499 0
452 -453 499 0
-452 -453 -499 0
454 455 -500 0
-454 455 500 0
454 -455 500 0
-454 -455 -500 0
456 457 -501 0
-456 457 501 0
456 -457 501 0
-456 -457 -501 0
458 459 -502 0
-458 459 502 0
458 -459 502 0
-458 -459 -502 0
460 461 -503 0
-460 461 503 0
460 -461 503 0
-460 -461 -503 0
462 463 -504 0
-462 463 504 0
462 -463 504 0
-462 -463 -504 0
464 465 -505 0
-464 465 505 0
464 -465 505 0
-464 -465 -505 0
466 467 -506 0
-466 467 506 0
466 -467 506 0
-466 -467 -506 0
468 469 -507 0
-468 469 507 0
468 -469 507 0
-468 -469 -507 0
470 471 -508 0
-470 471 508 0
470 -471 508 0
-470 -471 -508 0
472 473 -509 0
-472 473 509 0
472 -473 509 0
-472 -473 -509 0
474 475 -510 0
-474 475 510 0
474 -475 510 0
-474 -475 -510 0
476 477 -511 0
-476 477 511 0
476 -477 511 0
-476 -477 -511 0
478 479 -512 0
-478 479 512 0
478 -479 512 0
-478 -479 -512 0
480 481 -513 0
-480 481 513 0
480 -481 513 0
-480 -481 -513 0
482 483 -514 0
-482 483 514 0
482 -483 514 0
-482 -483 -514 0
484 485 -515 0
-484 485 515 0
484 -485 515 0
-484 -485 -515 0
486 487 -516 0
-486 487 516 0
486 -487 516 0
-486 -487 -516 0
488 489 -517 0
-488 489 517 0
488 -489 517 0
-488 -489 -517 0
490 491 -518 0
-490 491 518 0
490 -491 518 0
-490 -491 -518 0
492 493 -519 0
-492 493 519 0
492 -493 519 0
-492 -493 -519 0
494 495 -520 0
-494 495 520 0
494 -495 520 0
-494 -495 -520 0
496 497 -521 0
-496 497 521 0
496 -497 521 0
-496 -497 -521 0
498 499 -522 0
-498 499 522 0
498 -499 522 0
-498 -499 -522 0
500 501 -523 0
-500 501 523 0
500 -501 523 0
-500 -501 -523 0
502 503 -524 0
-502 503 524 0
502 -503 524 0
-502 -503 -524 0
504 505 -525 0
-504 505 525 0
504 -505 525 0
-504 -505 -525 0
506 507 -526 0
-506 507 526 0
506 -507 526 0
-506 -507 -526 0
508 509 -527 0
-508 509 527 0
508 -509 527 0
-508 -509 -527 0
510 511 -528 0
-510 511 528 0
510 -511 528 0
-510 -511 -528 0
512 513 -529 0
-512 513 529 0
512 -513 529 0
-512 -513 -529 0
514 515 -530 0
-514 515 530 0
514 -515 530 0
-514 -515 -530 0
516 517 -531 0
-516 517 531 0
516 -517 531 0
-516 -517 -531 0
518 519 -532 0
-518 519 532 0
518 -519 532 0
-518 -519 -532 0
520 521 -533 0
-520 521 533 0
520 -521 533 0
-520 -521 -533 0
522 523 -534 0
-522 523 534 0
522 -523 534 0
-522 -523 -534 0
524 525 -535 0
-524 525 535 0
524 -525 535 0
-524 -525 -535 0
526 527 -536 0
-526 527 536 0
526 -527 536 0
-526 -527 -536 0
529 530 -537 0
-529 530 537 0
529 -530 537 0
-529 -530 -537 0
531 532 -538 0
-531 532 538 0
531 -532 538 0
-531 -532 -538 0
533 534 -539 0
-533 534 539 0
533 -534 539 0
-533 -534 -539 0
535 536 -540 0
-535 536 540 0
535 -536 540 0
-535 -536 -540 0
537 538 -541 0
-537 538 541 0
537 -538 541 0
-537 -538 -541 0
539 540 -542 0
-539 540 542 0
539 -540 542 0
-539 -540 -542 0
541 542 -543 0
-541 542 543 0
541 -542 543 0
-541 -542 -543 0
543 528 -272 0
-543 528 272 0
543 -528 272 0
-543 -528 -272 0
